num_features = 60;
num_usage_limits = 8;
num_plans = 4;
num_addons = 3;

features = ["leadManagement","leadAssigmentAndRouting","duplicateBlocking","webToLeadCapture","massEmail","campaignManagement","emailTemplates","rulesBasedLeadScoring","leadRegistration","campaignInfluence","accountAndContactManagement","opportunityManagement","customizableSalesProcess","taskManagement","activityFeed","personAccounts","salesConsoleApps","salesTeams","calendarAll","salesforceMobileApp","fullOfflineMobileFunctionality","collaborativeForecasting","forecastingMobileApp","customOpportunityFieldsInForecasting","opportunitySplits","enterpriseTerritoryManagement","contracts","salesOrders","productBooks","priceBooks","quotes","customizableReports","customizableDashboards","advancedReportingFeatures","files","topics","recommendations","chatter","caseManagement","knowledge","lightingFlowAutomation","lightningAppBuilder","appExchange","dataStoragePerUser","fileStoragePerUser","unlimitedCustomApplications","customizableProfiles","customizablePageLayouts","rolesAndPermissions","recordTypes","developerSandbox","developerProSandbox","partialSandbox","fullSandbox","platform","workflowAndApproval","emailIntegrationWithOutlook","googleAppsIntegration","lightningSync","webServicesAPI"];
usage_limits = ["numberOfCampaignsPerOportunity","numberOfCustomAppsPerOrg","numberOfProcessesAndFlows","numberOfCustomizableProfiles","numberOfRoles","numberOfRecordTypes","numberOfPartialSandbox","numberOfFullSanbox"];
plans = ["STARTER","PROFESSIONAL","ENTERPRISE","UNLIMITED"];
addons = ["developerProSandbox","fullSandbox","webServicesAPI"];

plans_prices = [25,75,150,300];
addons_prices = [100,100,25];

linked_features = array2d(USAGE_LIMITS, FEATURES, [
    % numberOfCampaignsPerOportunity
    0,0,0,0,0,0,0,0,0,1,0,0,0,0,0,0,0,0,0,0,0,0,0,0,0,0,0,0,0,0,0,0,0,0,0,0,0,0,0,0,0,0,0,0,0,0,0,0,0,0,0,0,0,0,0,0,0,0,0,0,
    % numberOfCustomAppsPerOrg
    0,0,0,0,0,0,0,0,0,0,0,0,0,0,0,0,1,0,0,0,0,0,0,0,0,0,0,0,0,0,0,0,0,0,0,0,0,0,0,0,0,0,0,0,0,0,0,0,0,0,0,0,0,0,0,0,0,0,0,0,
    % numberOfProcessesAndFlows
    0,0,0,0,0,0,0,0,0,0,0,0,0,0,0,0,0,0,0,0,0,0,0,0,0,0,0,0,0,0,0,0,0,0,0,0,0,0,0,0,1,0,0,0,0,0,0,0,0,0,0,0,0,0,0,0,0,0,0,0,
    % numberOfCustomizableProfiles
    0,0,0,0,0,0,0,0,0,0,0,0,0,0,0,0,0,0,0,0,0,0,0,0,0,0,0,0,0,0,0,0,0,0,0,0,0,0,0,0,0,0,0,0,0,0,1,1,0,0,0,0,0,0,0,0,0,0,0,0,
    % numberOfRoles
    0,0,0,0,0,0,0,0,0,0,0,0,0,0,0,0,0,0,0,0,0,0,0,0,0,0,0,0,0,0,0,0,0,0,0,0,0,0,0,0,0,0,0,0,0,0,0,0,1,0,0,0,0,0,0,0,0,0,0,0,
    % numberOfRecordTypes
    0,0,0,0,0,0,0,0,0,0,0,0,0,0,0,0,0,0,0,0,0,0,0,0,0,0,0,0,0,0,0,0,0,0,0,0,0,0,0,0,0,0,0,0,0,0,0,0,0,1,0,0,0,0,0,0,0,0,0,0,
    % numberOfPartialSandbox
    0,0,0,0,0,0,0,0,0,0,0,0,0,0,0,0,0,0,0,0,0,0,0,0,0,0,0,0,0,0,0,0,0,0,0,0,0,0,0,0,0,0,0,0,0,0,0,0,0,0,0,0,1,0,0,0,0,0,0,0,
    % numberOfFullSanbox
    0,0,0,0,0,0,0,0,0,0,0,0,0,0,0,0,0,0,0,0,0,0,0,0,0,0,0,0,0,0,0,0,0,0,0,0,0,0,0,0,0,0,0,0,0,0,0,0,0,0,0,0,0,1,0,0,0,0,0,0
]);

plans_features = array2d(PLANS, FEATURES, [
    % STARTER
    1,1,1,1,1,1,1,0,0,0,1,1,1,1,1,0,0,0,0,1,1,0,0,0,0,0,0,0,0,0,0,1,1,0,1,1,1,1,1,1,1,1,1,1,1,0,0,0,0,0,0,0,0,0,0,0,1,1,1,0,
    % PROFESSIONAL
    1,1,1,1,1,1,1,1,1,1,1,1,1,1,1,1,1,0,0,1,1,1,1,0,0,0,1,1,1,1,1,1,1,0,1,1,1,1,1,1,1,1,1,1,1,1,1,1,1,1,1,0,0,0,0,0,1,1,1,0,
    % ENTERPRISE
    1,1,1,1,1,1,1,1,1,1,1,1,1,1,1,1,1,1,1,1,1,1,1,1,1,1,1,1,1,1,1,1,1,1,1,1,1,1,1,1,1,1,1,1,1,1,1,1,1,1,1,0,1,0,1,1,1,1,1,1,
    % UNLIMITED
    1,1,1,1,1,1,1,1,1,1,1,1,1,1,1,1,1,1,1,1,1,1,1,1,1,1,1,1,1,1,1,1,1,1,1,1,1,1,1,1,1,1,1,1,1,1,1,1,1,1,1,1,1,1,1,1,1,1,1,1
]);
plans_usage_limits = array2d(PLANS, USAGE_LIMITS, [
    % STARTER
    3,1,5,2,2,3,1,1,
    % PROFESSIONAL
    3,1,5,2,2,3,1,1,
    % ENTERPRISE
    5,Infinity,Infinity,Infinity,Infinity,Infinity,1,1,
    % UNLIMITED
    5,Infinity,Infinity,Infinity,Infinity,Infinity,1,1
]);

addons_features = array2d(ADDONS, FEATURES, [
    % developerProSandbox
    0,0,0,0,0,0,0,0,0,0,0,0,0,0,0,0,0,0,0,0,0,0,0,0,0,0,0,0,0,0,0,0,0,0,0,0,0,0,0,0,0,0,0,0,0,0,0,0,0,0,0,1,0,0,0,0,0,0,0,0,
    % fullSandbox
    0,0,0,0,0,0,0,0,0,0,0,0,0,0,0,0,0,0,0,0,0,0,0,0,0,0,0,0,0,0,0,0,0,0,0,0,0,0,0,0,0,0,0,0,0,0,0,0,0,0,0,0,0,1,0,0,0,0,0,0,
    % webServicesAPI
    0,0,0,0,0,0,0,0,0,0,0,0,0,0,0,0,0,0,0,0,0,0,0,0,0,0,0,0,0,0,0,0,0,0,0,0,0,0,0,0,0,0,0,0,0,0,0,0,0,0,0,0,0,0,0,0,0,0,0,1
]);
addons_usage_limits = array2d(ADDONS, USAGE_LIMITS, [
    % developerProSandbox
    0,0,0,0,0,0,0,0,
    % fullSandbox
    0,0,0,0,0,0,0,0,
    % webServicesAPI
    0,0,0,0,0,0,0,0
]);
addons_usage_limits_extensions = array2d(ADDONS, USAGE_LIMITS, [
    % developerProSandbox
    0,0,0,0,0,0,0,0,
    % fullSandbox
    0,0,0,0,0,0,0,0,
    % webServicesAPI
    0,0,0,0,0,0,0,0
]);
addons_available_for = array2d(ADDONS, PLANS, [
    % developerProSandbox
    0,1,1,0,
    % fullSandbox
    0,0,1,0,
    % webServicesAPI
    0,1,0,0
]);
addons_depends_on = array2d(ADDONS, ADDONS, [
    % developerProSandbox
    0,0,0,
    % fullSandbox
    0,0,0,
    % webServicesAPI
    0,0,0
]);
